0 1394
1 1373
2 1366
3 1346
4 1334
5 1317
6 1312
7 1306
8 1294
9 1287
10 1282
11 1272
12 1263
13 1244
14 1231
15 1223
16 1206
17 1194
18 1190
19 1179
20 1172
21 1163
22 1157
23 1145
24 1136
25 1129
26 1124
27 1117
28 1107
29 1100
30 1098
31 1092
32 1085
33 1079
34 1074
35 1065
36 1061
37 1055
38 1052
39 1050
40 1046
41 1042
42 1039
43 1034
44 1030
45 1023
46 1020
47 1017
48 1012
49 1007
50 1002
51 999
52 994
53 989
54 985
55 983
56 979
57 977
58 972
59 968
60 965
61 961
62 960
63 957
64 953
65 952
66 950
67 944
68 941
69 939
70 938
71 932
72 930
73 928
74 926
75 923
76 920
77 918
78 916
79 913
80 911
81 909
82 908
83 907
84 903
85 899
86 898
87 896
88 894
89 892
90 890
91 887
92 885
93 883
94 882
95 879
96 878
97 877
98 875
99 873
100 871
101 869
102 867
103 866
104 864
105 862
106 859
107 858
108 857
109 856
110 855
111 852
112 849
113 848
114 845
115 843
116 842
117 841
118 840
119 839
120 837
121 835
122 833
123 831
124 830
125 828
126 827
127 827
128 823
129 821
130 820
131 818
132 818
133 817
134 815
135 814
136 813
137 812
138 812
139 809
140 807
141 806
142 805
143 803
144 802
145 801
146 799
147 797
148 797
149 796
150 795
151 795
152 794
153 792
154 791
155 790
156 789
157 788
158 786
159 786
160 784
161 783
162 782
163 781
164 778
165 777
166 776
167 775
168 775
169 773
170 773
171 771
172 770
173 768
174 767
175 766
176 765
177 765
178 764
179 763
180 762
181 761
182 760
183 758
184 757
185 756
186 756
187 755
188 754
189 752
190 752
191 751
192 749
193 749
194 748
195 748
196 747
197 746
198 745
199 745
200 744
201 743
202 743
203 742
204 742
205 740
206 738
207 736
208 735
209 734
210 733
211 733
212 732
213 732
214 731
215 730
216 730
217 730
218 729
219 728
220 727
221 725
222 724
223 723
224 723
225 722
226 722
227 720
228 720
229 719
230 718
231 717
232 716
233 716
234 715
235 715
236 714
237 713
238 712
239 712
240 711
241 711
242 710
243 709
244 709
245 709
246 707
247 707
248 706
249 705
250 705
251 704
252 703
253 702
254 701
255 701
256 700
257 700
258 700
259 700
260 699
261 698
262 697
263 697
264 697
265 696
266 694
267 693
268 692
269 692
270 692
271 691
272 690
273 690
274 690
275 690
276 689
277 689
278 688
279 688
280 688
281 688
282 687
283 687
284 686
285 685
286 685
287 685
288 684
289 683
290 683
291 682
292 682
293 681
294 680
295 680
296 680
297 680
298 679
299 679
300 679
301 678
302 678
303 677
304 677
305 677
306 675
307 675
308 675
309 674
310 673
311 673
312 673
313 672
314 671
315 671
316 670
317 669
318 668
319 668
320 668
321 668
322 667
323 667
324 667
325 666
326 666
327 666
328 665
329 664
330 664
331 664
332 663
333 663
334 663
335 662
336 662
337 661
338 661
339 660
340 660
341 660
342 659
343 658
344 657
345 657
346 657
347 657
348 656
349 655
350 655
351 654
352 654
353 654
354 654
355 653
356 653
357 652
358 652
359 652
360 652
361 651
362 651
363 651
364 650
365 650
366 650
367 650
368 649
369 649
370 649
371 648
372 648
373 648
374 648
375 647
376 647
377 647
378 646
379 646
380 646
381 646
382 646
383 646
384 645
385 645
386 645
387 645
388 644
389 644
390 644
391 643
392 643
393 642
394 642
395 642
396 641
397 641
398 641
399 641
400 640
401 639
402 639
403 639
404 638
405 638
406 637
407 637
408 637
409 637
410 636
411 635
412 635
413 635
414 635
415 635
416 634
417 634
418 634
419 634
420 633
421 633
422 633
423 632
424 632
425 632
426 631
427 631
428 631
429 631
430 631
431 631
432 630
433 630
434 630
435 629
436 629
437 629
438 629
439 628
440 627
441 627
442 627
443 627
444 626
445 626
446 626
447 626
448 626
449 625
450 625
451 625
452 624
453 624
454 624
455 624
456 624
457 624
458 624
459 624
460 624
461 624
462 623
463 623
464 623
465 623
466 623
467 623
468 623
469 623
470 622
471 622
472 622
473 622
474 622
475 622
476 621
477 621
478 621
479 621
480 621
481 621
482 620
483 620
484 620
485 620
486 620
487 620
488 620
489 619
490 619
491 619
492 619
493 619
494 619
495 619
496 619
497 618
498 618
499 618
500 617
501 617
502 617
503 617
504 617
505 617
506 617
507 616
508 616
509 616
510 616
511 616
512 616
513 616
514 616
515 616
516 616
517 616
518 615
519 615
520 615
521 615
522 615
523 615
524 615
525 614
526 614
527 614
528 614
529 614
530 614
531 614
532 613
533 613
534 613
535 613
536 613
537 613
538 612
539 612
540 612
541 612
542 611
543 611
544 611
545 611
546 611
547 611
548 611
549 610
550 610
551 610
552 610
553 609
554 609
555 609
556 609
557 609
558 609
559 608
560 608
561 608
562 608
563 608
564 608
565 607
566 607
567 607
568 606
569 606
570 606
571 606
572 606
573 606
574 606
575 605
576 605
577 605
578 604
579 604
580 604
581 604
582 604
583 604
584 604
585 604
586 604
587 604
588 604
589 603
590 603
591 603
592 603
593 603
594 603
595 603
596 603
597 602
598 602
599 602
600 602
601 602
602 602
603 602
604 601
605 601
606 601
607 601
608 601
609 601
610 600
611 600
612 600
613 600
614 600
615 600
616 600
617 600
618 599
619 599
620 599
621 599
622 599
623 599
624 598
625 598
626 598
627 598
628 598
629 598
630 598
631 598
632 598
633 598
634 598
635 598
636 597
637 597
638 597
639 597
640 597
641 597
642 597
643 596
644 596
645 596
646 596
647 596
648 596
649 596
650 596
651 595
652 595
653 595
654 595
655 595
656 595
657 595
658 595
659 595
660 595
661 595
662 595
663 594
664 594
665 594
666 594
667 594
668 594
669 594
670 594
671 594
672 594
673 594
674 594
675 594
676 594
677 594
678 594
679 594
680 594
681 593
682 593
683 593
684 593
685 593
686 593
687 593
688 592
689 592
690 592
691 592
692 592
693 592
694 592
695 592
696 592
697 592
698 592
699 592
700 592
701 591
702 591
703 591
704 591
705 591
706 591
707 591
708 590
709 590
710 590
711 590
712 590
713 590
714 590
715 590
716 590
717 590
718 590
719 590
720 590
721 589
722 589
723 589
724 588
725 588
726 588
727 588
728 588
729 588
730 588
731 588
732 588
733 588
734 588
735 588
736 588
737 588
738 588
739 588
740 588
741 588
742 588
743 587
744 587
745 587
746 587
747 587
748 587
749 587
750 587
751 587
752 587
753 587
754 586
755 586
756 586
757 586
758 586
759 586
760 586
761 586
762 586
763 586
764 586
765 586
766 586
767 586
768 586
769 586
770 586
771 586
772 586
773 586
774 586
775 586
776 586
777 585
778 585
779 585
780 585
781 585
782 585
783 585
784 585
785 585
786 585
787 585
788 585
789 584
790 584
791 584
792 584
793 583
794 583
795 583
796 583
797 583
798 583
799 583
800 583
801 583
802 583
803 583
804 583
805 583
806 583
807 583
808 583
809 583
810 583
811 583
812 582
813 582
814 582
815 582
816 582
817 582
818 582
819 582
820 582
821 582
822 582
823 582
824 582
825 581
826 581
827 581
828 581
829 581
830 581
831 581
832 581
833 581
834 581
835 581
836 581
837 581
838 580
839 580
840 580
841 580
842 580
843 580
844 580
845 580
846 580
847 580
848 580
849 580
850 580
851 580
852 580
853 579
854 579
855 579
856 579
857 579
858 579
859 579
860 579
861 579
862 579
863 579
864 579
865 579
866 579
867 579
868 579
869 579
870 578
871 578
872 578
873 578
874 578
875 578
876 578
877 578
878 578
879 578
880 578
881 578
882 578
883 578
884 578
885 578
886 578
887 578
888 578
889 578
890 578
891 578
892 578
893 578
894 578
895 577
896 577
897 577
898 577
899 577
900 577
901 577
902 577
903 576
904 576
905 576
906 576
907 576
908 576
909 576
910 576
911 576
912 576
913 575
914 575
915 575
916 575
917 575
918 575
919 575
920 575
921 575
922 575
923 575
924 575
925 575
926 575
927 575
928 575
929 575
930 575
931 575
932 575
933 573
934 573
935 573
936 573
937 573
938 573
939 573
940 573
941 573
942 573
943 573
944 573
945 573
946 573
947 573
948 573
949 573
950 573
951 573
952 573
953 573
954 573
955 573
956 573
957 572
958 572
959 572
960 572
961 572
962 572
963 572
964 572
965 572
966 572
967 572
968 572
969 572
970 572
971 572
972 572
973 572
974 572
975 572
976 572
977 572
978 572
979 572
980 572
981 572
982 572
983 572
984 572
985 572
986 572
987 572
988 572
989 572
990 572
991 572
992 572
993 572
994 572
995 572
996 572
997 572
998 571
999 571
